p cnf 123 409
-1 2 -3 0
1 -2 -3 0
-1 -2 3 0
1 2 3 0
5 3 0
5 4 0
-3 -4 -5 0
7 1 0
7 6 0
-1 -6 -7 0
-8 -9 0
8 -9 0
7 9 -10 0
-7 -9 -10 0
7 -9 10 0
-7 9 10 0
-11 5 0
-11 10 0
-5 -10 11 0
14 -8 0
14 13 0
8 -13 -14 0
15 12 0
15 -14 0
-12 14 -15 0
-13 -14 -16 0
13 14 -16 0
-13 14 16 0
13 -14 16 0
17 -16 0
17 10 0
16 -10 -17 0
18 15 0
18 17 0
-15 -17 -18 0
-21 -19 0
-21 20 0
19 -20 21 0
-21 6 -22 0
21 -6 -22 0
-21 -6 22 0
21 6 22 0
-12 -23 -24 0
12 23 -24 0
-12 23 24 0
12 -23 24 0
24 3 -25 0
-24 -3 -25 0
24 -3 25 0
-24 3 25 0
-26 -22 0
-26 25 0
22 -25 26 0
-27 -18 0
-27 26 0
18 -26 27 0
-28 -11 0
-28 -27 0
11 27 28 0
30 -29 0
30 6 0
29 -6 -30 0
-32 -30 0
-32 -31 0
30 31 32 0
-33 -3 0
-33 -30 0
3 30 33 0
-32 -33 -34 0
32 33 -34 0
-32 33 34 0
32 -33 34 0
35 28 0
35 -34 0
-28 34 -35 0
-36 37 -38 0
36 -37 -38 0
-36 -37 38 0
36 37 38 0
38 16 -39 0
-38 -16 -39 0
38 -16 39 0
-38 16 39 0
-38 -22 -40 0
38 22 -40 0
-38 22 40 0
38 -22 40 0
-41 -40 0
-41 25 0
40 -25 41 0
39 41 -42 0
-39 -41 -42 0
39 -41 42 0
-39 41 42 0
43 -35 0
43 -42 0
35 42 -43 0
-6 -44 -45 0
6 44 -45 0
-6 44 45 0
6 -44 45 0
-46 -36 0
-46 45 0
36 -45 46 0
-47 32 0
-47 -7 0
-32 7 47 0
48 -47 0
48 24 0
47 -24 -48 0
29 -48 -49 0
-29 48 -49 0
29 48 49 0
-29 -48 49 0
-50 -46 0
-50 49 0
46 -49 50 0
51 -5 0
51 -24 0
5 24 -51 0
-52 -3 0
-52 -23 0
3 23 52 0
53 -9 0
53 52 0
9 -52 -53 0
-54 53 0
-54 53 0
-53 54 0
-51 54 -55 0
51 -54 -55 0
-51 -54 55 0
51 54 55 0
56 29 0
56 -20 0
-29 20 -56 0
-8 56 -57 0
8 -56 -57 0
-8 -56 57 0
8 56 57 0
58 -55 0
58 57 0
55 -57 -58 0
-59 50 0
-59 -58 0
-50 58 59 0
-43 59 -60 0
43 -59 -60 0
-43 -59 60 0
43 59 60 0
24 12 -61 0
-24 -12 -61 0
24 -12 61 0
-24 12 61 0
20 -44 -62 0
-20 44 -62 0
20 44 62 0
-20 -44 62 0
-63 29 0
-63 -4 0
-29 4 63 0
-64 62 0
-64 -63 0
-62 63 64 0
65 -61 0
65 64 0
61 -64 -65 0
24 -38 -66 0
-24 38 -66 0
24 38 66 0
-24 -38 66 0
66 17 -67 0
-66 -17 -67 0
66 -17 67 0
-66 17 67 0
-21 -67 -68 0
21 67 -68 0
-21 67 68 0
21 -67 68 0
69 65 0
69 68 0
-65 -68 -69 0
-60 69 -70 0
60 -69 -70 0
-60 -69 70 0
60 69 70 0
-71 23 0
-71 29 0
-23 -29 71 0
72 6 0
72 -12 0
-6 12 -72 0
20 72 -73 0
-20 -72 -73 0
20 -72 73 0
-20 72 73 0
74 -73 0
74 -5 0
73 5 -74 0
-75 -23 0
-75 -74 0
23 74 75 0
76 71 0
76 75 0
-71 -75 -76 0
7 75 -77 0
-7 -75 -77 0
7 -75 77 0
-7 75 77 0
-78 -4 0
-78 -66 0
4 66 78 0
79 30 0
79 8 0
-30 -8 -79 0
80 -79 0
80 36 0
79 -36 -80 0
-81 -30 0
-81 -79 0
30 79 81 0
82 80 0
82 -81 0
-80 81 -82 0
-78 82 -83 0
78 -82 -83 0
-78 -82 83 0
78 82 83 0
-84 77 0
-84 83 0
-77 -83 84 0
-85 76 0
-85 -84 0
-76 84 85 0
-86 1 0
-86 3 0
-1 -3 86 0
87 51 0
87 -23 0
-51 23 -87 0
-88 -86 0
-88 87 0
86 -87 88 0
-89 88 0
-89 -17 0
-88 17 89 0
-90 -63 0
-90 -13 0
63 13 90 0
89 -90 -91 0
-89 90 -91 0
89 90 91 0
-89 -90 91 0
-92 -79 0
-92 -44 0
79 44 92 0
-93 -91 0
-93 92 0
91 -92 93 0
94 85 0
94 93 0
-85 -93 -94 0
-95 12 0
-95 -14 0
-12 14 95 0
17 95 -96 0
-17 -95 -96 0
17 -95 96 0
-17 95 96 0
-29 96 -97 0
29 -96 -97 0
-29 -96 97 0
29 96 97 0
-98 19 0
-98 14 0
-19 -14 98 0
-97 98 -99 0
97 -98 -99 0
-97 -98 99 0
97 98 99 0
100 -94 0
100 99 0
94 -99 -100 0
-101 70 0
-101 100 0
-70 -100 101 0
-102 -13 0
-102 10 0
13 -10 102 0
103 -52 0
103 102 0
52 -102 -103 0
104 37 0
104 -45 0
-37 45 -104 0
105 24 0
105 104 0
-24 -104 -105 0
106 105 0
106 73 0
-105 -73 -106 0
103 -106 -107 0
-103 106 -107 0
103 106 107 0
-103 -106 107 0
-108 -101 0
-108 107 0
101 -107 108 0
-109 21 0
-109 13 0
-21 -13 109 0
-110 -72 0
-110 109 0
72 -109 110 0
111 -29 0
111 110 0
29 -110 -111 0
51 -22 -112 0
-51 22 -112 0
51 22 112 0
-51 -22 112 0
113 21 0
113 -25 0
-21 25 -113 0
112 -113 -114 0
-112 113 -114 0
112 113 114 0
-112 -113 114 0
-115 111 0
-115 -114 0
-111 114 115 0
116 -22 0
116 -110 0
22 110 -116 0
-117 5 0
-117 -116 0
-5 116 117 0
118 -73 0
118 74 0
73 -74 -118 0
118 119 -120 0
-118 -119 -120 0
118 -119 120 0
-118 119 120 0
117 -120 -121 0
-117 120 -121 0
117 120 121 0
-117 -120 121 0
-115 -121 -122 0
115 121 -122 0
-115 121 122 0
115 -121 122 0
123 -108 0
123 122 0
108 -122 -123 0
70 4 -34 64 0
-68 106 -48 110 -120 39 0
-57 -68 77 -101 118 0
78 -54 -110 0
-96 -24 31 -1 0
115 -102 101 -60 0
50 57 -77 -62 48 0
75 117 50 -107 108 0
63 -27 98 0
-11 24 -38 78 66 0
-23 114 35 55 -32 -97 0
-72 78 27 104 45 32 0
-72 -49 0
89 22 -45 90 -18 35 0
34 -53 10 3 -88 0
-80 78 0
-123 17 -73 59 3 -10 0
99 80 0
-117 31 0
-72 12 8 3 0
115 -24 -90 -73 -106 0
31 109 -28 -61 0
-1 80 74 11 -54 0
106 6 -8 73 -68 0
58 72 -78 18 0
-25 65 -123 35 83 0
121 -108 -93 -63 0
-25 -104 -62 -99 0
106 52 94 88 85 0
-47 78 71 123 -40 86 0
-40 27 85 0
101 58 -67 -68 0
50 -85 0
-3 -31 -27 0
75 49 107 59 0
106 -67 -50 -95 58 0
66 31 49 22 0
-73 -118 0
-72 -14 0
-90 121 -9 57 0
-70 -22 -1 -82 -47 0
74 -63 -27 -46 0
-17 56 89 117 0
-111 -95 0
57 76 40 78 -119 0
-69 52 24 0
38 37 0
-25 39 -68 -76 55 -67 0
-50 40 37 -102 10 0
76 -75 14 87 54 0
25 65 29 -101 0
-123 13 -31 -5 0
-45 1 85 0
123 0
